9783 : 15986 
15986 : 16033 9783 
6677 : 8572 16033 
8572 : 4288 6677 
20584 : 16041 18969 
14872 : 7749 9329 
7670 : 11719 
16033 : 6677 15986 
4288 : 11879 8572 
19513 : 6163 18015 
18969 : 20584 18015 
11719 : 7670 11879 
7858 : 11879 9329 
16041 : 1990 20584 
11459 : 20153 12280 
1990 : 16041 
11879 : 11719 7858 4288 
7749 : 4772 14872 
18015 : 19513 20153 18969 
9329 : 7858 14872 
12280 : 11459 4772 
1604 : 6163 
6163 : 1604 19513 
4772 : 12280 7749 
20153 : 18015 11459 
7670 1990 11459 1604 9783 9329 
